(set-info :smt-lib-version 2.6)
(set-logic QF_BV)
(set-info :source |
 Patrice Godefroid, SAGE (systematic dynamic test generation)
 For more information: http://research.microsoft.com/en-us/um/people/pg/public_psfiles/ndss2008.pdf
|)
(set-info :category "industrial")
(set-info :status sat)
(declare-fun T1_11611 () (_ BitVec 8))
(declare-fun T1_11607 () (_ BitVec 8))
(declare-fun T2_11215 () (_ BitVec 16))
(declare-fun T1_11206 () (_ BitVec 8))
(declare-fun T2_11609 () (_ BitVec 16))
(declare-fun T4_11207 () (_ BitVec 32))
(declare-fun T1_11790 () (_ BitVec 8))
(declare-fun T1_11730 () (_ BitVec 8))
(declare-fun T1_11670 () (_ BitVec 8))
(declare-fun T1_11609 () (_ BitVec 8))
(declare-fun T1_11610 () (_ BitVec 8))
(declare-fun T1_11215 () (_ BitVec 8))
(declare-fun T1_11216 () (_ BitVec 8))
(declare-fun T1_11207 () (_ BitVec 8))
(declare-fun T1_11208 () (_ BitVec 8))
(declare-fun T1_11209 () (_ BitVec 8))
(declare-fun T1_11210 () (_ BitVec 8))
(assert (let ((?v_3 ((_ zero_extend 24) T1_11611)) (?v_6 ((_ zero_extend 24) T1_11607)) (?v_2 ((_ zero_extend 16) T2_11215)) (?v_1 ((_ zero_extend 24) T1_11206))) (let ((?v_4 (bvsub ?v_1 (_ bv8 32)))) (let ((?v_0 (bvsub (bvadd (bvadd (bvadd (bvadd ?v_4 (_ bv4276870 32)) ?v_2) (_ bv7 32)) ?v_6) (_ bv4276837 32)))) (let ((?v_7 (bvadd ?v_0 (_ bv4276840 32)))) (let ((?v_8 (bvsub (bvadd ?v_7 ?v_3) (_ bv1 32))) (?v_5 ((_ zero_extend 16) T2_11609))) (and true (= T4_11207 (bvor (bvshl (bvor (bvshl (bvor (bvshl ((_ zero_extend 24) T1_11210) (_ bv8 32)) ((_ zero_extend 24) T1_11209)) (_ bv8 32)) ((_ zero_extend 24) T1_11208)) (_ bv8 32)) ((_ zero_extend 24) T1_11207))) (= T2_11215 (bvor (bvshl ((_ zero_extend 8) T1_11216) (_ bv8 16)) ((_ zero_extend 8) T1_11215))) (= T2_11609 (bvor (bvshl ((_ zero_extend 8) T1_11610) (_ bv8 16)) ((_ zero_extend 8) T1_11609))) (bvule ?v_8 (bvadd ?v_0 (_ bv4276886 32))) (bvule (bvadd (bvadd (bvadd (bvadd (bvadd ?v_1 (_ bv1 32)) (_ bv4276861 32)) ?v_2) (_ bv6 32)) (_ bv1 32)) (_ bv4277686 32)) (= (bvadd (bvadd (bvadd (bvadd ?v_5 (bvsub (_ bv4294967295 32) ?v_3)) (bvsub (_ bv4294967295 32) ((_ zero_extend 24) T1_11670))) (bvsub (_ bv4294967295 32) ((_ zero_extend 24) T1_11730))) (bvsub (_ bv4294967295 32) ((_ zero_extend 24) T1_11790))) (_ bv0 32)) (bvule (_ bv8 32) ?v_1) (not (= ?v_1 (_ bv1 32))) (bvule ?v_4 (_ bv0 32)) (= T4_11207 ?v_2) (not (= ?v_5 (_ bv0 32))) (bvult ?v_6 (_ bv8 32)) (not (= ?v_6 (_ bv0 32))) (= ?v_6 (_ bv1 32)) (not (= ?v_7 (_ bv0 32))) (bvult (bvadd ?v_0 (_ bv4276856 32)) ?v_8))))))))
(check-sat)
(exit)
